Si4 C4 Si240C240 Si239C239 Si238C240    
   1.00000000000000     
    16.0737549439674865    0.0000000000000000    0.0000000000000000
     0.0000000000000000   15.4794730292876110    0.0000000000000000
     0.0000000000000000    0.0000000000000000   20.2536317266319656
   Si   C 
   238   240
Direct
  0.6624024496066383  0.4037886190886795  0.5077192755172035
  0.3344282299100314  0.5991373271428770  0.4993087897298736
  0.3331729237790029  0.4002976121134054  0.4995990768743823
  0.4993426548808060  0.2999824279291516  0.5002236689279371
  0.5030575134899422  0.6958107665523272  0.4978329813969893
  0.6131063346109897  0.4924954506178381  0.6196571228122920
  0.4456330692969672  0.5980974097042662  0.6225117496653354
  0.4438824384960967  0.3984952646643549  0.6238311606371738
  0.3890665420394868  0.5006337224989679  0.3760338225428157
  0.5556090052360005  0.6008578212837818  0.3795144203293219
  0.5541848421162925  0.4016240101178781  0.3778418165344561
  0.2782724437536359  0.4996268623398663  0.6246068321090448
  0.7216159033090008  0.5022639967270734  0.3794975070474962
  0.6106113833379681  0.2975907955155179  0.6265773535175612
  0.6140723643250254  0.6958868760124943  0.6223806928739322
  0.3886516971291343  0.3004946617166624  0.3754344295186129
  0.3885587531271497  0.6998230497849605  0.3747162579764804
  0.5011123474820920  0.4987044012215520  0.7481380255116008
  0.5002368382362050  0.5003690678383492  0.2526081883092743
  0.1664891589162991  0.5001611835404418  0.4997868179900067
  0.8297045562583421  0.5016830524556113  0.4989669603948457
  0.6691282993362364  0.8010206311686190  0.4985311912290413
  0.6663039164568545  0.2003528923326456  0.5008795854215151
  0.3329432254833407  0.2002423169211127  0.5001591486697663
  0.3350504082255341  0.7984236431830141  0.4997081175994182
  0.7749602893124745  0.6006760072978494  0.6225629866095943
  0.7783736728670547  0.3991527285197876  0.6259677766495102
  0.2221171779539546  0.6001157606997864  0.3746476798574818
  0.2220677975806638  0.4002214443814367  0.3748395298665130
  0.2776861642059885  0.3000762932636150  0.6245653672122913
  0.2788676364553311  0.6989773009038771  0.6242301178070022
  0.7208245628171284  0.3026039029438010  0.3778664216951739
  0.7236158050837602  0.7030106029641630  0.3754818274461229
  0.4460149164529383  0.7983615780134699  0.6239889197469424
  0.4444059892815275  0.1996091867139569  0.6250154312535088
  0.5549789810109971  0.2005387085643733  0.3755204674588200
  0.5552068061736719  0.8009003266596650  0.3745075591641296
  0.3331772855711250  0.5998559749850756  0.2499097182637584
  0.3341153848963501  0.5994068882063459  0.7491995214290910
  0.3333352265947696  0.3997343809789129  0.7497710336096333
  0.3331519566747332  0.4002915963279108  0.2502552358650263
  0.6661524840774575  0.5976954828202281  0.7484710489757802
  0.6663131750575531  0.6003892927647243  0.2509698779974769
  0.6660057399458665  0.4010149135184733  0.2519164434218624
  0.6667281568949548  0.3986611705361796  0.7506731496976542
  0.4997992161606035  0.2993039878638655  0.7504800554638109
  0.4999518953506552  0.3003399480483608  0.2509425701225467
  0.5004888053459453  0.6999631323544335  0.2509257103009190
  0.5012777243392037  0.6991020448767884  0.7484605463073208
  0.1653928227730930  0.3001632616178682  0.4998594048999792
  0.1666777185134265  0.6999611320290029  0.4995879670151240
  0.8322351502564160  0.3011066882704299  0.5008112458941412
  0.8335979655006582  0.7029699015291655  0.4984810065056422
  0.4998576829732144  0.0993774898011281  0.5000664001154078
  0.5003785503979330  0.8995443190298786  0.4994812919528258
  0.1114206128518873  0.5998620816399267  0.6246687534684341
  0.1109247308929184  0.4001749725739217  0.6247723660297027
  0.8893807834637784  0.6004038472436761  0.3747487228609216
  0.8885239002306733  0.4002792037522482  0.3753208400838304
  0.7784325497222824  0.8002663280725315  0.6245262067044663
  0.7776903954485874  0.1996605147128534  0.6256355750716551
  0.2220025657855658  0.2003235815551747  0.3750195777191436
  0.2224529500988055  0.8000204289097042  0.3747600092634826
  0.6109930815916513  0.0987787360431227  0.6254452448610692
  0.6113171591078199  0.8985616006325330  0.6249248053118421
  0.3886781313977536  0.1003010085039904  0.3750780184989253
  0.3887867074002429  0.9001427553684564  0.3747254188906268
  0.1669182700691678  0.4999007800341388  0.7496705703389068
  0.1665477393004053  0.5000860657178166  0.2497633654164275
  0.8329186776344102  0.5003719753639118  0.7493202569073460
  0.8324736157259949  0.5004834975959298  0.2512954473509481
  0.3332707195471869  0.1998934705822677  0.7498345222435034
  0.3332031806504716  0.2002869762960415  0.2501674138494465
  0.3340807670550774  0.7994856800702834  0.7492474164790579
  0.3334631751342485  0.7999443071052781  0.2497287890136235
  0.6666149588999559  0.1990146818983263  0.7508086334209949
  0.6663097389151744  0.2009433765214226  0.2511175521919995
  0.6664569960754818  0.8004472638562135  0.2501780988992905
  0.6665626395581299  0.7988062775601961  0.7490022558961726
  0.9439232541342690  0.5004239261032808  0.6246540090120476
  0.0555083464653592  0.5001516081110040  0.3748046489371291
  0.2779948261982170  0.0997947778433570  0.6247846434448334
  0.2787149857786488  0.8992388155914881  0.6246274359971551
  0.7219472435271754  0.1012434396389637  0.3753995999571629
  0.7226047550503765  0.9016553782384804  0.3744471995936962
  0.3893615223150846  0.4997516253328911  0.8744115837725488
  0.5555733455562262  0.5994711434868734  0.8743774461697029
  0.5554745001851273  0.3997976094035565  0.8751805665030830
  0.6109017452952656  0.5001984499366259  0.1259704666995916
  0.4446158102508875  0.5998820989016735  0.1255203876964472
  0.4446419628993681  0.4004253084598730  0.1258824864918466
  0.1663576914105178  0.3002240319377378  0.2500065597138175
  0.1666022992302274  0.3000478822427439  0.7497701530306102
  0.1667457890889779  0.7000772935049397  0.2496086719026067
  0.1671706611285728  0.6997014060912363  0.7495407029188570
  0.8332809183227425  0.2996325755723248  0.7504895529197455
  0.8325337601478893  0.3005158419476572  0.2510083660141404
  0.8329551817912986  0.6992727534709005  0.7491046937137611
  0.8335407620470860  0.7002022451442258  0.2501808315016163
  0.4998162992207895  0.1002737014729789  0.2501915660596552
  0.4999311172720908  0.0996476620644131  0.7501728688644818
  0.4998688698828175  0.9003282230078682  0.2497978939369432
  0.5001649139093658  0.8995040760527147  0.7496590028321819
  0.9997395237991640  0.6001411601414262  0.4995963756697179
  0.9983181492004931  0.4009290214895387  0.5000061709852801
  0.9445535549190822  0.2999083838061836  0.6252539561466932
  0.9444365696705788  0.6996761966718523  0.6247741998499947
  0.0551394107448999  0.3003237083642105  0.3750783623153850
  0.0558187679937916  0.7002418782388133  0.3746073616252943
  0.1111382828000629  0.1999517599838612  0.6248417650057547
  0.1116396552734358  0.7995827059945668  0.6246748707680041
  0.1666441109080452  0.1001485265244568  0.4998809109857376
  0.8332965919924078  0.1006571316942981  0.5003181047002201
  0.1673768298947635  0.8996126927953227  0.4997843263581530
  0.8342121122186725  0.9015070481451843  0.4996190657094317
  0.8881555818067000  0.2007718447003484  0.3754445122731482
  0.8897630834765593  0.8012767479199852  0.3742792224717135
  0.6670773607787623  0.9998426425555493  0.4999071689300507
  0.3335233388897976  0.9996995490385601  0.4998778588168378
  0.4447993745777765  0.9992814630259872  0.6249382038952831
  0.5553223337582978  0.0004912348781403  0.3748057231874498
  0.7221322365134242  0.4997142979411393  0.8749415513317018
  0.2778647889042816  0.5000669643266065  0.1248688632095352
  0.3888328530802667  0.2998394280614249  0.8751404188368070
  0.3893611680613844  0.6997306874719982  0.8741988001129073
  0.6111227964978880  0.3004838732135298  0.1260351081018314
  0.6111144527360182  0.6999289512708771  0.1253292157632657
  0.2224724119324222  0.5998563685526577  0.8745667620082500
  0.2222863711369030  0.3999321590097438  0.8748361744631268
  0.7222198580414130  0.2996048559994691  0.8756154966213714
  0.7218755950941755  0.6992948991873220  0.8742130103616077
  0.7775904314677149  0.6000308241538974  0.1253844368735173
  0.7774687349364555  0.4001911295873626  0.1258021940912215
  0.2777878729132226  0.3001973746541680  0.1250199367413742
  0.2778909578995936  0.6999579818654311  0.1245978661692888
  0.5554692073682475  0.1997847157123118  0.8754916579913186
  0.5555870436095347  0.7996199112384872  0.8744965528027464
  0.4444461733362957  0.2002599830723071  0.1253618711132845
  0.4446047202993029  0.7997693164474171  0.1250293915086473
  0.9993325175852377  0.2003701181525628  0.5001034406263116
  0.9999214366289522  0.8003273170084668  0.4996128860835185
  0.7779659377870018  0.9998326909320454  0.6251297366581241
  0.2222269630399012  0.0002435848575857  0.3748296606522032
  0.0001389657876345  0.5998604762962856  0.7497085738840710
  0.0001067816653730  0.6001774026294910  0.2497870790137213
  0.9998921215429064  0.4001255822650833  0.7497907086504298
  0.9995921079189714  0.4002360675063343  0.2501481620958401
  0.1667444409066192  0.0999283933503250  0.7497678220838964
  0.1665588939869593  0.1002527603735217  0.2499122862358405
  0.1670237597967628  0.8997241313989122  0.7496303814640441
  0.1668187617864803  0.9001035602619183  0.2496999494184138
  0.8333634222367650  0.0997657861118526  0.7502843253323164
  0.8330382700114356  0.1003826413418807  0.2502356773351266
  0.8334357929939671  0.9004115540597226  0.2496362951087221
  0.8333977274264086  0.8997142381992802  0.7498010029658815
  0.3334722358823754  0.9997651722510099  0.7497402411694196
  0.3332600724398986  0.0002057097085384  0.2498349133690922
  0.6664952166873377  0.0005532302021081  0.2500026549297516
  0.6666126249587805  0.9992667992570574  0.7500644207302969
  0.9446527836764034  0.0998977084431516  0.6250803798102709
  0.9449366241644199  0.8999771781922945  0.6247848587624958
  0.0553592654842276  0.1004200548790095  0.3749407711484878
  0.0559456760905945  0.9003530294764488  0.3747492813790458
  0.8887527268578950  0.5998379629580839  0.8746758189031496
  0.8886851874390018  0.4001152553070781  0.8749032481838981
  0.1111190534498121  0.6000533617948136  0.1246523957393251
  0.1109599025270072  0.4001055060831931  0.1248959507263336
  0.2222189521768954  0.1999838535109575  0.8748071614604953
  0.2224697375148281  0.7998410457960219  0.8744829941488277
  0.7778162952605072  0.8001081707406925  0.1248381475189930
  0.7776513331272454  0.2001873780782262  0.1255191712970429
  0.3888416820060030  0.0998686030802958  0.8749559622977969
  0.3889594933120009  0.8998158177056297  0.8746126725829271
  0.6111104020415894  0.1003411094500635  0.1254412704814172
  0.6111714017405134  0.9000661365379088  0.1250279513631725
  0.5001314383087347  0.4999835772241852  0.0002920995993776
  0.1116580285450937  0.9997712884706189  0.6247692919006340
  0.8890418181359578  0.0008493300024099  0.3748509054611375
  0.0555843097874060  0.4999333993227282  0.8747683711746461
  0.9440764949911582  0.5000999929078063  0.1253594758411012
  0.7222008786516199  0.0996617853857700  0.8753773773612252
  0.7220765652046026  0.8995679961019292  0.8746431274335151
  0.2778012673608075  0.1001518505983370  0.1248794771634323
  0.2779116414230742  0.8999886393378063  0.1246547457437046
  0.9995856923751063  0.2002915015242266  0.2501971200006068
  0.0000112567259265  0.1998917988643143  0.7500525627082979
  0.0000968111435995  0.7996842600991840  0.7496576710372693
  0.0002533316463413  0.8002006739833192  0.2495779498213864
  0.6665742108010022  0.5998104314490291  0.0001238105291037
  0.6666590251470339  0.4000147450868567  0.0005051707355719
  0.3336098516164014  0.5999013978478445  0.9996922747298740
  0.3335768254582163  0.4001019865764945  0.0000635282233006
  0.5001053252649896  0.3000826646038988  0.0005538013126198
  0.5001317609050133  0.6997340899133988  0.9998375237922161
  0.0554857023462745  0.3000567203741440  0.8749059195532780
  0.0556418346376475  0.6998691365482301  0.8745963393377281
  0.8888971318405012  0.1999096221246290  0.8752905605399377
  0.8886945714806913  0.7996676573712023  0.8745129377818657
  0.9441548329115932  0.3001319197522960  0.1254030675345774
  0.9443788104843875  0.7000843138490396  0.1247814339054543
  0.1110396171785695  0.2001522330183221  0.1249696391091604
  0.1111915771386478  0.8000386830382595  0.1245406604920660
  0.5555093385257024  0.9997429978143373  0.8750035155220246
  0.4444620324964248  0.0000877621295388  0.1248912720841204
  0.0005083194089224  0.0002826681653190  0.4998707615412599
  0.1667118828687038  0.5000033332183236  0.9997640747745464
  0.8331800840502410  0.4999700075259810  0.0002257962469656
  0.6666837337539420  0.7997634214756246  0.9997672504347008
  0.6666915307519190  0.2000259766421237  0.0005649245879411
  0.3334023885945783  0.2000256331857173  0.0000718638797750
  0.3335203230681003  0.7998406285331043  0.9996075104206241
  0.2222559458955473  0.9999110285915762  0.8746681252936881
  0.7778115557683165  0.0001935573860123  0.1249534513486310
  0.1667084499645028  0.3000519401443569  0.9999116825711809
  0.1667330115754311  0.6999647645436440  0.9995605147316837
  0.8333359432892919  0.3000503396537511  0.0004566528859513
  0.8331391237053438  0.6998664838882931  0.9997289071070981
  0.5000367674725865  0.0999718434169310  0.0002620476650748
  0.5000820851516750  0.8997601668087540  0.9998739634596063
  0.0555815167009470  0.0999692633353817  0.8748291232687109
  0.0555904940642762  0.8998787172788667  0.8746166243244389
  0.9444364034669448  0.1001371485138023  0.1250479283537373
  0.9445500505996804  0.9001255392393261  0.1246483191817589
  0.0000276820240117  0.0002550296396251  0.2498325299739435
  0.0001710698517812  0.9998023152934721  0.7498267183313416
  0.8888869019292400  0.9998290809496382  0.8748992250999805
  0.1112216989098940  0.0000839557471224  0.1247284695520889
  0.9998740703283318  0.5999418751345118  0.9998075854832180
  0.9998176356515458  0.4000442966558140  0.0000988898783945
  0.1667525545551030  0.1000348519933709  0.9997963104202583
  0.8334047933192110  0.1000351499441976  0.0002233039837094
  0.1667622467458543  0.8999609167954006  0.9995824358257508
  0.8333395575247380  0.8999256347477740  0.9997454781210351
  0.6667051202338996  0.9998904136519826  0.0001389158394929
  0.3334123916393210  0.9999337724691628  0.9997804583985683
  0.9999855469789551  0.7999724266474004  0.9995720313514767
  0.0000543182947439  0.2000746829446598  0.0001158866121145
  0.0000889607639536  0.0000268230433562  0.9997752961988624
  0.6809868768437113  0.6250754474264824  0.4919518356509514
  0.4409546542959717  0.6073039229027444  0.5320208859099651
  0.4384588657502917  0.3898655925959602  0.5333980534721690
  0.4994293209887601  0.5013429012075434  0.4007169437197504
  0.5018941615626815  0.4977648321840320  0.6531056675799221
  0.2773474273863954  0.5000085660901945  0.5306924348350250
  0.6100270674778869  0.2991762918511540  0.5328461400741134
  0.6216326539164996  0.6882116008833634  0.5249533655213483
  0.3326883878995588  0.6004239399491027  0.4058379830512209
  0.3327939181445174  0.4002715697575709  0.4060544841418263
  0.6686035306992650  0.6041763254105845  0.4189565283552881
  0.6643795033626105  0.4041020041727066  0.4117554901354410
  0.4997866670971405  0.2998958576803687  0.4067294986561123
  0.4999462550078775  0.7014768709392527  0.4054780648514864
  0.6658570651377360  0.5952929818772645  0.6535780834905296
  0.6677923531329952  0.3965913728550419  0.6575978993641840
  0.3344118426309350  0.5990736755303132  0.6559106429567763
  0.3329676804389621  0.3996782859927563  0.6565647355273327
  0.4998607513420339  0.2989065847957590  0.6573096999589509
  0.5026112805318803  0.6983744760991044  0.6540759644580803
  0.7642734683587378  0.6041329541520852  0.5249988122210425
  0.7766127009894106  0.4016961089701212  0.5323410926698600
  0.2759784730812811  0.2997212157582467  0.5306416392436049
  0.2774211295274966  0.6997157868573467  0.5303634711209924
  0.4442337521476816  0.1984454229155119  0.5310708105212498
  0.4480985362989429  0.7983297168000121  0.5301395367114097
  0.3880448576171034  0.5002660820537201  0.2810135725264047
  0.5570950963592551  0.6010778871128721  0.2834733464090178
  0.5555962100804805  0.3996561152928351  0.2824793967415289
  0.1663738576430234  0.5002184131428038  0.4060523023517817
  0.8335677584641132  0.5006407480055088  0.4063335433799935
  0.3330940812375260  0.2001547517796425  0.4063570852664853
  0.3336390732054184  0.8000270314960858  0.4059985373709338
  0.6661559665085335  0.2011111228688023  0.4072601132135816
  0.6669471090509305  0.8014126024794734  0.4057799352127063
  0.7211778282560601  0.5016691420619566  0.2842986724968668
  0.3886258850135391  0.3001601325879335  0.2812504330607482
  0.3888942499168451  0.7000069816996941  0.2807558459046078
  0.3898289068195098  0.4994871911270096  0.7801149739087307
  0.5557418515992936  0.5989056888969557  0.7799562199940198
  0.5556494811464532  0.3992975517923227  0.7811010327180057
  0.8325076958410946  0.5011329655076793  0.6547695317043463
  0.1667263087926045  0.4999405300821280  0.6560012934927784
  0.6668044462856244  0.1981663976859238  0.6571723779351188
  0.6671059897928302  0.7977937763932488  0.6546963653862576
  0.3345694236151360  0.7991209397250998  0.6555274219308700
  0.3331715875132062  0.1998245906100919  0.6561525123855745
  0.1106053555049371  0.6001356753677456  0.5306447644953494
  0.1096864481661299  0.4006697711727298  0.5307567202796832
  0.1661296075768277  0.3002536627522971  0.4061517340303880
  0.1665620627924511  0.7001740599626700  0.4059043977271983
  0.7775132937427571  0.2005408549601952  0.5315800955541476
  0.7787334305318865  0.8013341444163800  0.5304158308915916
  0.8325930946855564  0.3010410134050190  0.4072694504697765
  0.8341651887649419  0.7011804963170718  0.4057260883304750
  0.6110922653717026  0.0992646718540655  0.5313316388713645
  0.6115198305926057  0.8983669356040807  0.5308110359838665
  0.4999262486302314  0.1000413133197071  0.4063666485058945
  0.5001516905464740  0.9004655325488997  0.4059514310578223
  0.2218720004470214  0.6001490984097657  0.2806272524497970
  0.2217727624852941  0.4001203159603790  0.2808206484009261
  0.7215101791280460  0.3013731586589543  0.2831074049197753
  0.7220757812934409  0.7000541656923005  0.2819548159002849
  0.5555873848483373  0.8006546596106574  0.2808700503798320
  0.5552507661897010  0.2000054177839914  0.2814886416512792
  0.7221569450519141  0.4991530986078345  0.7807200466627009
  0.3886804538115101  0.2997222247052633  0.7812147480964811
  0.3899283501642259  0.6995373885120983  0.7798853720734300
  0.8337492022486970  0.2994339984255490  0.6568357078124407
  0.8327314415894733  0.6992656311451952  0.6547967030086284
  0.1663793144057166  0.3000146548460023  0.6561030227812807
  0.1672830561768777  0.6996572726778396  0.6558560069254042
  0.4999530772602014  0.0992826164155076  0.6564872175938703
  0.5004197753127499  0.8990086913568049  0.6559646170479496
  0.5001688594621143  0.5004260277143970  0.1578167941421000
  0.9413654070622286  0.5020307882236423  0.5306766104074754
  0.2777453482682901  0.0996997592166977  0.5308032530143763
  0.2789750046889026  0.8989731300189376  0.5306296043018506
  0.2227149752293514  0.5997836237069691  0.7805822376635874
  0.2221580744350646  0.3999283263152833  0.7809172362408248
  0.7223429404281205  0.2989935396338623  0.7817280145328382
  0.7216699736071845  0.6984705823429138  0.7795687388885995
  0.5554743046205175  0.1993856290704343  0.7815505412629022
  0.5557720419353700  0.7993394819722681  0.7803156941465019
  0.6667411804949666  0.6001834568888071  0.1571057145443362
  0.6667241196836144  0.4006329607884851  0.1577055048935208
  0.3332375556971883  0.6001128174023052  0.1561228403710047
  0.3332092379946801  0.4000805884544363  0.1563948509162998
  0.4999537208246849  0.3002196596175679  0.1569841766312337
  0.5002055670831496  0.6998832533621737  0.1568516926518271
  0.9436306160407923  0.3005784432507213  0.5312443911756191
  0.9434875390022128  0.6996037806484097  0.5306825381585583
  0.1108691558301231  0.7998135503339938  0.5306479516968636
  0.1103734566140417  0.1999034168942302  0.5308385962382971
  0.4447549952423344  0.9991256921607388  0.5309030239866885
  0.8889255034221151  0.6003633284833043  0.2810846754481418
  0.8884066512503068  0.4004187886965909  0.2814579689829273
  0.2219400666620786  0.2001979847519948  0.2809383633618054
  0.2222533999055258  0.8000715716818121  0.2806849949724963
  0.3886772677533159  0.1001200751799729  0.2809953809937937
  0.3888093655224409  0.9001195443215622  0.2807178401749368
  0.5001758998993253  0.4998719566616998  0.9063630242293641
  0.0000179557832922  0.6003498270710779  0.4060354545118230
  0.9994629218966722  0.4004652568705538  0.4063588652741359
  0.1664925177067857  0.1001807974008528  0.4061735624157023
  0.1669153973007624  0.9000694452387350  0.4060841303962164
  0.8330935510096324  0.1005394115060767  0.4066002194855187
  0.8335546942111520  0.9006401133169106  0.4060257119007815
  0.3333617700682012  0.0000708457573566  0.4061607506763920
  0.6665942631161599  0.0007300268128176  0.4063064786964858
  0.0553019624138145  0.5001739939907850  0.2808295511815686
  0.7219655055036327  0.1005373017762281  0.2813830949563823
  0.7223189960619365  0.9004630478573645  0.2807499281562684
  0.8887708577234079  0.5998702039186909  0.7805020122039679
  0.8885699536951961  0.4002570750890371  0.7805462085749966
  0.2220872622530194  0.1999508591201220  0.7807885378469095
  0.2227107242521527  0.7997265883689693  0.7804251789582253
  0.3887551549465584  0.0997851403313561  0.7809177163037049
  0.3890370567855896  0.8997000747033113  0.7805792882337173
  0.0000080524838282  0.5999809928912470  0.6559466171170953
  0.9996044381607518  0.4003725275495782  0.6560476816213026
  0.8334935569412210  0.0996810519083340  0.6564954096823286
  0.8336979125475494  0.8998439382285000  0.6560337090540855
  0.1667705642424480  0.0998689215608053  0.6560779240077323
  0.1671923995189744  0.8995826248125809  0.6558905535012727
  0.6668192471203795  0.9986429183076950  0.6562545804959683
  0.3335759451523828  0.9995867112257528  0.6560505739516387
  0.8328152630826722  0.5002162050050316  0.1572664709310914
  0.1665381452199668  0.5000928710248402  0.1560373115663793
  0.6666884892866349  0.2004414769566765  0.1571491425665741
  0.6668304246219492  0.7999856950746249  0.1564818757831219
  0.3332064165337343  0.2001031445639114  0.1563689119740488
  0.3333730644095141  0.7999955545989081  0.1560057789003437
  0.3336939992839731  0.5998527637462061  0.9057600737840019
  0.3334977932459751  0.4000351152164754  0.9062169884305717
  0.6665523550150425  0.5996611759372428  0.9061176062933285
  0.6666849199794740  0.3998319088744395  0.9065994563331543
  0.5000179840365249  0.2998915326929961  0.9066956405492164
  0.5002636033879853  0.6996336900086249  0.9058896900642281
  0.7779502423693430  0.0003780549802244  0.5310207763045085
  0.0550783208216643  0.3002547611056272  0.2810452323556092
  0.0554803523900915  0.7002179111541054  0.2806450783103074
  0.8889888767658292  0.8004250944923257  0.2805863153762118
  0.8883483592541381  0.2004305303918414  0.2814015531145060
  0.5554553394735322  0.0001951570143319  0.2808698909985807
  0.0555719163076631  0.4999757949966863  0.7807315309607077
  0.7222649159558401  0.0991114964798072  0.7813432280537427
  0.7220898493551857  0.8989630068318490  0.7804046382671999
  0.8329408195691173  0.3001794886381575  0.1570710804992785
  0.8331554901201841  0.7001352655566890  0.1564700270694530
  0.1664735568955464  0.3001209865871175  0.1562413521048498
  0.1666429899523578  0.7000915659027243  0.1558783377372350
  0.4999106478012294  0.1000863630142632  0.1564535094481840
  0.5000136290248989  0.9000401918621961  0.1561572857415285
  0.0002396973587580  0.8003138146402549  0.4059996598538547
  0.9994376146207244  0.2003974281027823  0.4063877532003204
  0.9443935822723759  0.1000125286992031  0.5310288026253147
  0.9448068348055827  0.9002957799542983  0.5307363814161974
  0.0553684252623015  0.3000556207400891  0.7808317104562690
  0.0557369540187409  0.6998169904116196  0.7805632453662810
  0.8889247373005915  0.1997636180475979  0.7812446259832484
  0.8886119601903033  0.7993724354095093  0.7802940861267302
  0.5555186237229819  0.9995091725286684  0.7809425782662203
  0.6111916742132806  0.5000156008049927  0.0315891810347892
  0.4446347058158082  0.5999408550558911  0.0311873102542819
  0.4446501523212376  0.4001456771125902  0.0315103780338291
  0.0000517964261633  0.1998890199259264  0.6563163747538425
  0.0000954222997507  0.7996902575450306  0.6558487451179644
  0.1667318574739411  0.4999934882751162  0.9060678154750832
  0.8332150925220745  0.4999823379314066  0.9063148187970640
  0.3333279680196171  0.1998597958156552  0.9063413275172465
  0.3336010685245654  0.7997015547517847  0.9057903771968867
  0.6666962113984596  0.7995222164413107  0.9058325420514350
  0.6666598598438327  0.1996954139744176  0.9068290916879391
  0.1116300705957372  0.9997415172554156  0.5307479664818118
  0.2220974943110292  0.0001469321691800  0.2807856147276908
  0.2778487083528631  0.5000586316410534  0.0307796706423886
  0.6112925128217270  0.3000985876657083  0.0317132932638913
  0.6112402184051575  0.6998990583412450  0.0310933133908406
  0.1666683666866291  0.2999730655773192  0.9061917087564240
  0.1667917689680394  0.6999084891825476  0.9058398373054786
  0.8334280806089254  0.3000067389314864  0.9066033409221319
  0.8330426976847036  0.6997621456766367  0.9058143524811442
  0.4999806363648602  0.0997371391744508  0.9065085227449501
  0.5000890185944655  0.8996467744100656  0.9060630826271137
  0.0553145476186572  0.1002536447954441  0.2809228622273707
  0.0555617791713203  0.9001675185513278  0.2807306741042765
  0.2222448030733091  0.9998519407324977  0.7806700897758034
  0.7777398452160398  0.6000035297562718  0.0311816901195741
  0.7778005692659988  0.4000468272920443  0.0315447578056265
  0.2778487216848333  0.3000663755678303  0.0309127154793671
  0.2778914391658276  0.6999385477234981  0.0305417434808604
  0.4445285003785457  0.2000017536712733  0.0312535173317343
  0.4446374960703068  0.7997602427053536  0.0308549552367055
  0.9998849090587143  0.6001458287794321  0.1561465248568012
  0.9997294964824235  0.4001433895107382  0.1564432708953873
  0.8332600931828154  0.1000975817285195  0.1564902174020517
  0.8333847551176703  0.9001218815456085  0.1560483789694018
  0.1665836605727264  0.1000816484872473  0.1561758397145070
  0.1667029778962217  0.9000266514211148  0.1559580131410385
  0.6667039659857821  0.0001647770032562  0.1563450436028191
  0.3332864513524640  0.0000535470547689  0.1561108095857051
  0.8888041306810806  0.0003335332513785  0.2808902242973872
  0.0555449282867642  0.0998471906880667  0.7807993075888930
  0.0556295133598113  0.8997186455578969  0.7805795387464656
  0.0000759284227101  0.0002379684505840  0.4061733746012379
  0.8889343669112790  0.9996801790055443  0.7808480295668545
  0.1110881462039686  0.6000400797190153  0.0306512297227357
  0.1110461761578421  0.4000534980132144  0.0308280639429483
  0.7778253628604119  0.7999420136448947  0.0307746953690753
  0.7778883941282828  0.1999971332797372  0.0313883998700817
  0.6112421527643761  0.0999735405547355  0.0313188614271382
  0.6112821182037322  0.8997943369846837  0.0309244188803675
  0.0003348619685042  0.9998277132865567  0.6561001259530883
  0.0000089035910378  0.8000912357865033  0.1559219376873813
  0.9998058208719129  0.2001061724701714  0.1564395574216135
  0.9999152105804185  0.5999392325920923  0.9060147361560809
  0.9998685265056793  0.4000379867037225  0.9062322578345317
  0.1667272529236072  0.0999197710564701  0.9060776322347337
  0.1667562239847769  0.8998408786357999  0.9058493924874895
  0.8333963609324471  0.0998575953601062  0.9064716996230331
  0.8332752128288661  0.8997574529226284  0.9059283737659669
  0.3333819683465507  0.9997927482755884  0.9060599180734670
  0.6666668286685038  0.9996005601117659  0.9063365431523280
  0.9442755513659264  0.5000710139923399  0.0311770036975716
  0.2778705165230093  0.0999507982059598  0.0308353775813117
  0.2779206014998721  0.8998824111607462  0.0306104662016580
  0.9444295093973878  0.3000193783204139  0.0312707430454395
  0.9443361222700233  0.7000311764622396  0.0306878528170103
  0.1111543338500169  0.7999812471986871  0.0305241339542519
  0.1111990936634442  0.2000108449286060  0.0309147409207213
  0.4445561697807108  0.9998482679627969  0.0308695199770739
  0.0000791658891615  0.1999791882963322  0.9063348446928075
  0.9999166481150112  0.7998646814921173  0.9058160010006233
  0.7779057690328486  0.9999388868623669  0.0309364791686875
  0.0000201853863402  0.0000618115665958  0.1561320593242073
  0.9445679277880075  0.0999848476484289  0.0309944931826678
  0.9445177269803580  0.8999903809336800  0.0306445890913523
  0.1112280121745641  0.9999598583183271  0.0306845949466634
  0.0000626095030114  0.9999011525365304  0.9060530998090641
 
  0.00000000E+00  0.00000000E+00  0.00000000E+00
  0.00000000E+00  0.00000000E+00  0.00000000E+00
  0.00000000E+00  0.00000000E+00  0.00000000E+00
  0.00000000E+00  0.00000000E+00  0.00000000E+00
  0.00000000E+00  0.00000000E+00  0.00000000E+00
  0.00000000E+00  0.00000000E+00  0.00000000E+00
  0.00000000E+00  0.00000000E+00  0.00000000E+00
  0.00000000E+00  0.00000000E+00  0.00000000E+00
  0.00000000E+00  0.00000000E+00  0.00000000E+00
  0.00000000E+00  0.00000000E+00  0.00000000E+00
  0.00000000E+00  0.00000000E+00  0.00000000E+00