8

  Si   -0.00000000000000  -0.00000000000000   0.00000000000000
  Si    2.69880396990000   2.69880396990000   2.69880396990000
  Si    2.69880396990000   2.69880396990000   5.39760793980000
  Si    5.39760793980000   5.39760793980000   8.09641190970000
  Si    5.39760793980000   2.69880396990000   2.69880396990000
  Si    8.09641190970000   5.39760793980000   5.39760793980000
  Si    2.69880396990000   5.39760793980000   2.69880396990000
  Si    5.39760793980000   8.09641190970000   5.39760793980000
